Maximize
  0 x0 - 15 x1 + 0 x2 + 42 x3 - 12 x4 + 9 x5 + 0 x6 + 0 x7 + 22 x8 - 18 x9
   - 32 x10 + 23 x11 + 0 x12 - 2 x13 + 19 x14 - 6 x15 + 29 x16 + 0 x17
   - 34 x18 + 24 x19 + 13 x20 - 30 x21 + 0 x22 + 20 x23 - 5 x24 + 0 x25
   + 0 x26 + 0 x27 - 46 x28 + 0 x29 - 24 x30 + 45 x31 + 0 x32 + 14 x33
   + 37 x34 + 28 x35 + 0 x36 - x37 - 32 x38 + 18 x39 + 26 x40 + 0 x41
   - 45 x42 + 28 x43 - 47 x44 - 42 x45 + 0 x46 - 30 x47 - 15 x48 + 19 x49
   - 31 x50 + 0 x51 + 0 x52 + 0 x53 - 9 x54 - 6 x55 - 36 x56 + 33 x57
   + 28 x58 + 0 x59 - 3 x60 + 18 x61 - 40 x62 + 0 x63 - 18 x64 + x65
   - 29 x66 + 0 x67 + 41 x68 + 0 x69 + [ 28 x0 * x1 + 86 x0 * x2
   - 30 x0 * x3 - 74 x0 * x6 - 14 x0 * x7 - 16 x0 * x8 - 70 x0 * x10
   + 56 x0 * x11 - 26 x0 * x17 + 12 x0 * x18 + 76 x0 * x21 - 34 x0 * x22
   + 86 x0 * x23 - 80 x0 * x24 + 50 x0 * x25 + 10 x0 * x26 + 72 x0 * x27
   + 28 x0 * x29 - 10 x0 * x30 + 22 x0 * x31 + 98 x0 * x32 + 36 x0 * x33
   + 22 x0 * x34 - 2 x0 * x35 + 56 x0 * x36 + 72 x0 * x37 + 44 x0 * x38
   + 32 x0 * x39 + 48 x0 * x40 + 98 x0 * x43 + 36 x0 * x44 - 62 x0 * x45
   - 88 x0 * x47 - 98 x0 * x48 - 46 x0 * x51 + 80 x0 * x52 + 80 x0 * x55
   + 52 x0 * x56 - 90 x0 * x58 - 36 x0 * x59 + 96 x0 * x60 - 18 x0 * x61
   + 84 x0 * x62 + 2 x0 * x63 + 42 x0 * x64 - 98 x0 * x65 + 78 x0 * x66
   + 34 x0 * x67 + 54 x0 * x68 + 16 x0 * x69 + 22 x1 ^2 + 62 x1 * x2
   + 84 x1 * x3 + 50 x1 * x5 - 80 x1 * x7 + 26 x1 * x8 + 48 x1 * x9
   - 62 x1 * x10 + 64 x1 * x11 + 8 x1 * x12 - 46 x1 * x13 - 20 x1 * x15
   - 68 x1 * x16 - 34 x1 * x18 - 8 x1 * x20 - 88 x1 * x21 + 12 x1 * x22
   - 84 x1 * x23 + 78 x1 * x24 + 16 x1 * x25 + 16 x1 * x26 + 6 x1 * x27
   - 96 x1 * x28 + 34 x1 * x29 + 58 x1 * x30 + 76 x1 * x31 - 80 x1 * x32
   - 26 x1 * x33 - 84 x1 * x34 - 4 x1 * x35 - 76 x1 * x36 - 72 x1 * x37
   + 42 x1 * x38 + 56 x1 * x39 + 96 x1 * x40 + 88 x1 * x41 - 86 x1 * x42
   + 56 x1 * x43 - 94 x1 * x45 - 2 x1 * x46 + 78 x1 * x47 - 54 x1 * x48
   - 98 x1 * x49 - 58 x1 * x50 - 54 x1 * x51 + 42 x1 * x52 - 34 x1 * x53
   + 90 x1 * x54 + 58 x1 * x55 + 82 x1 * x57 + 64 x1 * x58 + 34 x1 * x60
   - 62 x1 * x61 + 50 x1 * x62 - 54 x1 * x63 + 48 x1 * x65 - 16 x1 * x68
   + 46 x2 ^2 + 32 x2 * x3 - 92 x2 * x5 - 40 x2 * x6 - 86 x2 * x8
   - 24 x2 * x9 + 10 x2 * x10 + 24 x2 * x11 + 38 x2 * x12 + 10 x2 * x13
   + 66 x2 * x14 + 76 x2 * x15 + 68 x2 * x16 - 12 x2 * x17 - 74 x2 * x18
   - 34 x2 * x19 - 66 x2 * x20 + 46 x2 * x21 - 66 x2 * x22 + 76 x2 * x28
   - 14 x2 * x31 + 98 x2 * x34 - 38 x2 * x35 + 88 x2 * x36 - 62 x2 * x37
   + 84 x2 * x39 - 30 x2 * x40 - 48 x2 * x41 - 2 x2 * x42 - 74 x2 * x43
   + 60 x2 * x44 - 62 x2 * x45 + 62 x2 * x47 + 76 x2 * x49 + 42 x2 * x50
   + 58 x2 * x52 + 8 x2 * x54 - 14 x2 * x55 - 88 x2 * x56 - 54 x2 * x57
   + 20 x2 * x58 - 26 x2 * x59 + 22 x2 * x60 + 82 x2 * x61 - 28 x2 * x62
   + 86 x2 * x63 - 64 x2 * x64 + 86 x2 * x67 + 86 x2 * x68 - 86 x2 * x69
   + 13 x3 ^2 - 76 x3 * x6 + 64 x3 * x7 + 70 x3 * x9 - 6 x3 * x10
   - 56 x3 * x11 + 34 x3 * x14 - 10 x3 * x15 + 60 x3 * x16 - 66 x3 * x18
   - 46 x3 * x19 - 10 x3 * x20 + 6 x3 * x21 + 90 x3 * x22 - 40 x3 * x23
   + 26 x3 * x24 - 30 x3 * x26 + 36 x3 * x29 + 64 x3 * x30 - 42 x3 * x31
   + 54 x3 * x33 - 44 x3 * x35 + 26 x3 * x36 + 60 x3 * x37 - 44 x3 * x39
   + 64 x3 * x40 + 8 x3 * x41 - 96 x3 * x42 - 24 x3 * x45 - 96 x3 * x47
   + 44 x3 * x48 - 14 x3 * x51 - 52 x3 * x53 + 2 x3 * x54 - 66 x3 * x55
   - 56 x3 * x56 - 40 x3 * x57 + 68 x3 * x58 - 52 x3 * x59 - 4 x3 * x60
   - 18 x3 * x61 + 32 x3 * x62 - 78 x3 * x63 + 18 x3 * x64 - 28 x3 * x65
   - 52 x3 * x66 - 46 x3 * x67 + 44 x3 * x69 + 8 x4 * x5 - 26 x4 * x6
   + 62 x4 * x7 + 66 x4 * x9 - 30 x4 * x11 + 44 x4 * x13 + 68 x4 * x16
   + 30 x4 * x17 + 90 x4 * x18 + 94 x4 * x19 + 8 x4 * x20 - 74 x4 * x21
   + 42 x4 * x22 - 20 x4 * x23 - 70 x4 * x24 + 80 x4 * x26 + 32 x4 * x28
   + 50 x4 * x29 - 50 x4 * x30 + 86 x4 * x33 - 20 x4 * x36 + 50 x4 * x37
   + 74 x4 * x38 + 44 x4 * x39 + 14 x4 * x40 - 52 x4 * x41 - 2 x4 * x42
   + 56 x4 * x43 + 20 x4 * x45 - 80 x4 * x46 - 4 x4 * x47 - 54 x4 * x48
   - 32 x4 * x49 - 82 x4 * x50 + 68 x4 * x52 + 10 x4 * x53 + 16 x4 * x56
   - 10 x4 * x58 + 50 x4 * x61 + 54 x4 * x63 - 86 x4 * x64 - 68 x4 * x65
   - 70 x4 * x66 + 22 x4 * x67 + 82 x4 * x68 + 49 x5 ^2 + 2 x5 * x9
   + 26 x5 * x10 + 74 x5 * x11 - 56 x5 * x12 + 74 x5 * x13 - 40 x5 * x15
   - 22 x5 * x16 - 22 x5 * x17 - 24 x5 * x18 - 28 x5 * x21 + 8 x5 * x22
   - 58 x5 * x23 + 76 x5 * x24 + 40 x5 * x25 + 20 x5 * x26 + 30 x5 * x27
   - 78 x5 * x30 - 4 x5 * x31 - 80 x5 * x32 - 62 x5 * x33 + 70 x5 * x34
   - 54 x5 * x35 - 96 x5 * x36 - 10 x5 * x37 + 12 x5 * x38 - 46 x5 * x39
   + 54 x5 * x41 - 62 x5 * x42 + 46 x5 * x43 + 50 x5 * x45 + 48 x5 * x46
   - 78 x5 * x47 - 76 x5 * x48 + 66 x5 * x49 - 8 x5 * x51 - 32 x5 * x53
   - 24 x5 * x54 + 36 x5 * x56 + 48 x5 * x57 + 32 x5 * x58 - 74 x5 * x59
   - 24 x5 * x61 - 94 x5 * x62 + 82 x5 * x63 + 48 x5 * x64 - 70 x5 * x65
   - 60 x5 * x66 - 96 x5 * x67 + 48 x5 * x68 + 82 x5 * x69 + 52 x6 * x7
   - 80 x6 * x8 - 86 x6 * x11 + 40 x6 * x12 + 26 x6 * x13 + 40 x6 * x14
   - 58 x6 * x15 + 86 x6 * x16 - 48 x6 * x17 + 72 x6 * x18 - 20 x6 * x20
   - 26 x6 * x22 + 98 x6 * x24 - 78 x6 * x25 + 60 x6 * x26 - 98 x6 * x27
   - 22 x6 * x29 - 74 x6 * x30 - 46 x6 * x31 - 84 x6 * x32 + 48 x6 * x33
   - 26 x6 * x34 - 10 x6 * x37 - 98 x6 * x38 - 74 x6 * x41 + 74 x6 * x43
   - 20 x6 * x44 + 8 x6 * x45 - 58 x6 * x46 + 84 x6 * x47 - 86 x6 * x49
   - 56 x6 * x50 + 74 x6 * x52 - 78 x6 * x53 - 52 x6 * x54 + 72 x6 * x55
   - 84 x6 * x56 + 42 x6 * x57 + 8 x6 * x60 - 66 x6 * x61 - 24 x6 * x62
   - 18 x6 * x63 + 16 x6 * x64 - 90 x6 * x65 - 38 x6 * x67 - 52 x6 * x68
   - 80 x6 * x69 - 22 x7 ^2 - 32 x7 * x9 + 66 x7 * x11 + 98 x7 * x12
   + 36 x7 * x13 - 84 x7 * x14 - 26 x7 * x15 - 4 x7 * x17 - 56 x7 * x18
   + 42 x7 * x19 - 76 x7 * x20 - 80 x7 * x21 + 52 x7 * x22 + 50 x7 * x23
   + 90 x7 * x24 + 78 x7 * x25 - 50 x7 * x28 + 78 x7 * x29 + 92 x7 * x30
   - 88 x7 * x31 - 38 x7 * x32 + 84 x7 * x33 + 58 x7 * x34 - 90 x7 * x36
   - 82 x7 * x37 + 52 x7 * x38 + 2 x7 * x39 + 18 x7 * x41 + 78 x7 * x42
   + 46 x7 * x44 + 46 x7 * x45 - 2 x7 * x46 - 8 x7 * x47 + 4 x7 * x48
   - 82 x7 * x49 - 68 x7 * x50 - 38 x7 * x51 - 56 x7 * x52 + 38 x7 * x53
   - 46 x7 * x54 - 78 x7 * x55 + 76 x7 * x56 + 60 x7 * x57 + 26 x7 * x60
   - 20 x7 * x61 - 84 x7 * x62 - 44 x7 * x64 - 32 x7 * x65 + 94 x7 * x66
   + 72 x7 * x67 - 54 x7 * x68 + 6 x8 * x9 - 14 x8 * x10 - 8 x8 * x11
   + 68 x8 * x12 - 68 x8 * x13 - 26 x8 * x14 - 20 x8 * x15 + 70 x8 * x16
   - 98 x8 * x20 - 68 x8 * x21 - 50 x8 * x23 + 60 x8 * x24 + 32 x8 * x25
   + 18 x8 * x27 - 66 x8 * x29 + 94 x8 * x30 + 72 x8 * x33 + 50 x8 * x36
   + 40 x8 * x38 + 30 x8 * x39 - 68 x8 * x40 + 6 x8 * x41 + 64 x8 * x44
   - 20 x8 * x45 - 92 x8 * x46 + 92 x8 * x47 - 32 x8 * x50 - 74 x8 * x51
   - 4 x8 * x52 + 58 x8 * x54 - 86 x8 * x55 - 16 x8 * x57 + 40 x8 * x58
   - 74 x8 * x63 + 80 x8 * x64 - 78 x8 * x66 - 26 x8 * x68 + 25 x9 ^2
   + 2 x9 * x10 - 36 x9 * x13 - 66 x9 * x14 - 70 x9 * x15 + 14 x9 * x18
   - 80 x9 * x19 - 14 x9 * x21 - 62 x9 * x23 + 42 x9 * x24 + 68 x9 * x26
   + 34 x9 * x27 - 48 x9 * x29 - 80 x9 * x30 + 98 x9 * x31 - 80 x9 * x32
   - 58 x9 * x33 - 44 x9 * x34 + 86 x9 * x35 + 50 x9 * x37 - 20 x9 * x38
   + 14 x9 * x39 - 66 x9 * x40 - 56 x9 * x45 - 40 x9 * x46 + 40 x9 * x47
   - 20 x9 * x48 + 34 x9 * x49 + 84 x9 * x50 - 6 x9 * x51 + 36 x9 * x53
   + 20 x9 * x54 + 18 x9 * x55 + 46 x9 * x58 - 92 x9 * x61 + 24 x9 * x63
   - 94 x9 * x64 + 68 x9 * x65 - 84 x9 * x66 - 76 x9 * x67 + 98 x9 * x69
   - 22 x10 * x11 + 42 x10 * x12 + 4 x10 * x15 + 14 x10 * x16
   + 50 x10 * x17 - 16 x10 * x18 + 20 x10 * x19 + 46 x10 * x20
   - 96 x10 * x21 - 26 x10 * x23 + 72 x10 * x24 + 54 x10 * x27
   + 62 x10 * x28 + 82 x10 * x29 + 16 x10 * x30 + 2 x10 * x31
   - 34 x10 * x32 + 64 x10 * x33 - 64 x10 * x36 - 38 x10 * x39
   - 76 x10 * x40 - 36 x10 * x41 - 84 x10 * x42 + 8 x10 * x43
   - 86 x10 * x44 + 42 x10 * x45 + 40 x10 * x46 + 94 x10 * x48
   - 22 x10 * x49 + 60 x10 * x50 - 40 x10 * x51 + 84 x10 * x53
   + 44 x10 * x54 - 16 x10 * x55 + 16 x10 * x56 + 90 x10 * x57
   + 74 x10 * x58 - 4 x10 * x60 + 92 x10 * x61 + 80 x10 * x62
   + 12 x10 * x64 + 96 x10 * x65 + 64 x10 * x66 + 52 x10 * x67
   - 40 x10 * x68 - 14 x11 ^2 + 46 x11 * x12 + 30 x11 * x13 + 6 x11 * x14
   + 8 x11 * x15 + 20 x11 * x16 + 16 x11 * x17 - 82 x11 * x18
   - 38 x11 * x19 + 80 x11 * x20 - 94 x11 * x21 - 62 x11 * x22
   - 12 x11 * x24 - 48 x11 * x26 - 54 x11 * x27 + 38 x11 * x28
   + 66 x11 * x29 - 12 x11 * x30 - 32 x11 * x31 + 34 x11 * x33
   + 16 x11 * x34 + 72 x11 * x36 - 74 x11 * x37 - 34 x11 * x38
   + 80 x11 * x40 - 48 x11 * x41 - 4 x11 * x42 + 2 x11 * x43 + 94 x11 * x45
   + 68 x11 * x46 - 26 x11 * x47 - 60 x11 * x49 + 48 x11 * x52
   + 38 x11 * x53 + 4 x11 * x54 - 64 x11 * x55 + 54 x11 * x56
   - 80 x11 * x57 - 20 x11 * x58 - 94 x11 * x59 + 56 x11 * x60
   - 26 x11 * x63 - 32 x11 * x64 + 18 x11 * x66 + 68 x11 * x67
   - 76 x11 * x68 + 78 x11 * x69 - 25 x12 ^2 + 24 x12 * x15 + 28 x12 * x16
   + 6 x12 * x17 + 38 x12 * x18 - 10 x12 * x19 + 84 x12 * x20
   - 90 x12 * x22 - 14 x12 * x25 + 16 x12 * x26 + 20 x12 * x27
   + 76 x12 * x28 + 92 x12 * x29 + 60 x12 * x30 - 14 x12 * x31
   - 90 x12 * x32 - 36 x12 * x34 - 70 x12 * x35 - 86 x12 * x36
   - 6 x12 * x37 + 26 x12 * x38 + 2 x12 * x39 - 82 x12 * x41 - 90 x12 * x42
   - 8 x12 * x43 + 16 x12 * x44 + 90 x12 * x46 - 28 x12 * x48
   - 48 x12 * x49 + 76 x12 * x50 - 68 x12 * x51 - 90 x12 * x52
   + 32 x12 * x53 + 94 x12 * x55 + 68 x12 * x56 + 64 x12 * x58
   - 96 x12 * x59 + 10 x12 * x60 - 26 x12 * x62 + 16 x12 * x63
   + 22 x12 * x64 - 10 x12 * x65 + 20 x12 * x67 - 76 x12 * x68 + 25 x13 ^2
   - 84 x13 * x15 - 20 x13 * x16 + 28 x13 * x17 + 10 x13 * x18
   - 84 x13 * x19 + 92 x13 * x20 + 16 x13 * x21 + 92 x13 * x22
   - 88 x13 * x23 - 10 x13 * x28 + 38 x13 * x29 - 88 x13 * x30
   + 58 x13 * x31 + 88 x13 * x33 + 16 x13 * x35 + 10 x13 * x36
   + 60 x13 * x37 - 14 x13 * x38 + 56 x13 * x39 + 6 x13 * x41
   - 44 x13 * x42 + 4 x13 * x43 + 80 x13 * x44 + 72 x13 * x45
   + 92 x13 * x46 + 2 x13 * x47 - 20 x13 * x49 + 38 x13 * x50
   - 12 x13 * x52 - 36 x13 * x57 - 28 x13 * x59 + 44 x13 * x60
   - 58 x13 * x61 + 60 x13 * x62 - 56 x13 * x63 + 56 x13 * x64
   + 72 x13 * x65 + 50 x13 * x66 - 78 x13 * x67 + 16 x13 * x68
   - 10 x13 * x69 - 39 x14 ^2 + 92 x14 * x15 - 86 x14 * x16 + 74 x14 * x20
   - 28 x14 * x21 + 8 x14 * x22 + 28 x14 * x23 - 38 x14 * x24
   + 20 x14 * x25 - 12 x14 * x26 + 98 x14 * x27 - 22 x14 * x30
   + 24 x14 * x31 - 66 x14 * x34 - 74 x14 * x35 - 6 x14 * x36
   + 48 x14 * x37 - 68 x14 * x38 - 52 x14 * x40 + 64 x14 * x41
   + 22 x14 * x42 - 82 x14 * x43 - 20 x14 * x44 + 34 x14 * x46
   - 16 x14 * x47 - 6 x14 * x48 - 34 x14 * x49 + 60 x14 * x51
   + 28 x14 * x52 + 46 x14 * x53 + 84 x14 * x54 - 50 x14 * x55
   + 26 x14 * x56 + 60 x14 * x57 - 82 x14 * x58 + 22 x14 * x62
   - 4 x14 * x64 + 76 x14 * x67 + 84 x14 * x68 - 70 x15 * x16
   + 12 x15 * x17 + 26 x15 * x18 - 8 x15 * x19 + 20 x15 * x20
   - 64 x15 * x21 - 72 x15 * x22 - 8 x15 * x23 - 92 x15 * x24
   + 64 x15 * x25 + 86 x15 * x26 + 38 x15 * x27 + 14 x15 * x29
   - 26 x15 * x30 - 54 x15 * x33 - 60 x15 * x34 + 62 x15 * x35
   + 40 x15 * x36 - 12 x15 * x37 + 48 x15 * x39 + 88 x15 * x40
   + 44 x15 * x41 + 94 x15 * x42 - 38 x15 * x43 + 40 x15 * x46
   + 10 x15 * x47 + 58 x15 * x48 + 84 x15 * x49 - 12 x15 * x50
   + 16 x15 * x51 + 6 x15 * x52 + 14 x15 * x53 - 52 x15 * x54
   + 42 x15 * x55 + 52 x15 * x56 + 52 x15 * x57 - 56 x15 * x58
   - 52 x15 * x59 - 8 x15 * x60 - 16 x15 * x61 + 16 x15 * x62
   + 60 x15 * x63 - 44 x15 * x65 + 88 x15 * x66 + 44 x15 * x67
   - 96 x15 * x68 + 52 x15 * x69 - 2 x16 ^2 + 16 x16 * x17 + 36 x16 * x18
   + 40 x16 * x20 + 28 x16 * x21 + 78 x16 * x22 - 30 x16 * x24
   + 70 x16 * x26 + 28 x16 * x27 - 66 x16 * x30 + 66 x16 * x31
   + 32 x16 * x32 - 74 x16 * x33 - 74 x16 * x35 + 86 x16 * x36
   - 20 x16 * x37 + 40 x16 * x38 - 34 x16 * x39 + 34 x16 * x41
   + 86 x16 * x44 - 14 x16 * x46 + 60 x16 * x47 + 34 x16 * x48
   + 26 x16 * x49 + 20 x16 * x52 + 26 x16 * x54 + 78 x16 * x55
   + 98 x16 * x56 + 8 x16 * x58 - 84 x16 * x60 + 74 x16 * x61
   - 12 x16 * x62 + 96 x16 * x63 + 8 x16 * x64 + 18 x16 * x65
   - 52 x16 * x66 + 24 x16 * x67 + 14 x16 * x68 + 22 x16 * x69 + 27 x17 ^2
   - 42 x17 * x18 + 20 x17 * x21 + 74 x17 * x22 + 54 x17 * x23
   - 48 x17 * x24 + 8 x17 * x25 + 78 x17 * x26 + 50 x17 * x28
   + 54 x17 * x29 + 60 x17 * x30 + 80 x17 * x31 + 46 x17 * x33
   + 76 x17 * x34 - 98 x17 * x35 - 50 x17 * x36 + 2 x17 * x37
   - 64 x17 * x38 - 18 x17 * x39 - 72 x17 * x40 - 34 x17 * x41
   + 18 x17 * x42 + 18 x17 * x43 - 14 x17 * x45 + 16 x17 * x46
   + 66 x17 * x47 + 72 x17 * x48 - 36 x17 * x49 + 54 x17 * x50
   - 32 x17 * x51 + 66 x17 * x52 + 34 x17 * x54 - 76 x17 * x55
   - 94 x17 * x56 - 14 x17 * x57 + 4 x17 * x60 - 62 x17 * x61
   + 22 x17 * x62 + 96 x17 * x63 - 42 x17 * x64 - 58 x17 * x67
   - 72 x17 * x68 - 26 x17 * x69 + 9 x18 ^2 - 58 x18 * x21 + 20 x18 * x22
   - 70 x18 * x24 + 6 x18 * x25 - 30 x18 * x26 + 6 x18 * x27 + 84 x18 * x28
   + 10 x18 * x29 + 62 x18 * x30 - 16 x18 * x31 - 34 x18 * x33
   + 40 x18 * x35 - 2 x18 * x36 + 20 x18 * x37 + 84 x18 * x38 - 4 x18 * x40
   + 8 x18 * x41 + 82 x18 * x42 + 20 x18 * x43 + 76 x18 * x44
   - 44 x18 * x45 - 88 x18 * x46 - 92 x18 * x47 - 12 x18 * x48
   + 6 x18 * x50 + 10 x18 * x51 - 42 x18 * x52 - 22 x18 * x53
   + 78 x18 * x54 - 72 x18 * x55 + 52 x18 * x56 + 44 x18 * x60
   + 14 x18 * x61 - 90 x18 * x62 + 94 x18 * x64 - 82 x18 * x65
   - 88 x18 * x67 + 66 x18 * x68 + 18 x18 * x69 + 80 x19 * x20
   + 60 x19 * x21 - 42 x19 * x22 - 38 x19 * x24 - 24 x19 * x25
   + 34 x19 * x26 - 24 x19 * x27 - 90 x19 * x28 + 8 x19 * x29
   + 76 x19 * x31 - 16 x19 * x35 - 56 x19 * x39 + 70 x19 * x41
   + 10 x19 * x42 + 70 x19 * x43 - 62 x19 * x44 - 98 x19 * x45
   + 54 x19 * x48 + 38 x19 * x57 + 10 x19 * x58 + 24 x19 * x59
   + 94 x19 * x60 - 60 x19 * x61 + 58 x19 * x62 - 36 x19 * x63
   - 54 x19 * x64 - 88 x19 * x65 + 2 x19 * x67 + 46 x19 * x68 + 25 x20 ^2
   + 68 x20 * x21 - 98 x20 * x22 - 48 x20 * x23 - 44 x20 * x26
   - 48 x20 * x28 - 94 x20 * x32 + 60 x20 * x34 + 14 x20 * x35
   + 82 x20 * x36 - 86 x20 * x37 + 34 x20 * x38 + 8 x20 * x39
   + 44 x20 * x40 - 92 x20 * x41 + 84 x20 * x42 - 78 x20 * x43
   - 28 x20 * x45 - 42 x20 * x46 - 30 x20 * x47 + 16 x20 * x48
   + 50 x20 * x49 - 62 x20 * x51 - 80 x20 * x52 - 82 x20 * x55
   + 64 x20 * x56 + 90 x20 * x57 + 46 x20 * x59 - 76 x20 * x60
   - 92 x20 * x61 - 46 x20 * x62 - 8 x20 * x63 - 14 x20 * x64
   + 10 x20 * x65 - 96 x20 * x66 - 62 x20 * x67 - 52 x20 * x68
   - 82 x20 * x69 + 22 x21 ^2 + 20 x21 * x22 - 80 x21 * x25 - 84 x21 * x27
   - 78 x21 * x28 + 92 x21 * x29 - 40 x21 * x30 + 22 x21 * x31
   - 76 x21 * x32 - 38 x21 * x34 - 58 x21 * x35 - 98 x21 * x36
   + 32 x21 * x37 + 58 x21 * x39 - 50 x21 * x40 + 44 x21 * x41
   + 94 x21 * x42 - 36 x21 * x44 + 74 x21 * x46 + 32 x21 * x47
   + 42 x21 * x48 - 32 x21 * x50 - 54 x21 * x51 - 52 x21 * x52
   + 44 x21 * x53 - 76 x21 * x54 + 52 x21 * x56 + 52 x21 * x57
   + 40 x21 * x59 + 24 x21 * x61 + 64 x21 * x62 + 70 x21 * x63
   + 36 x21 * x65 + 86 x21 * x66 - 56 x21 * x69 - 4 x22 ^2 + 2 x22 * x23
   - 94 x22 * x24 + 86 x22 * x25 + 96 x22 * x27 + 96 x22 * x28
   - 96 x22 * x29 + 52 x22 * x30 - 56 x22 * x31 - 16 x22 * x32
   - 2 x22 * x35 + 24 x22 * x38 + 80 x22 * x39 - 42 x22 * x42
   + 78 x22 * x44 - 2 x22 * x47 + 4 x22 * x48 - 44 x22 * x50 + 78 x22 * x51
   + 8 x22 * x52 - 32 x22 * x53 - 68 x22 * x54 - 2 x22 * x56 - 84 x22 * x57
   + 14 x22 * x60 + 22 x22 * x61 - 4 x22 * x62 + 92 x22 * x63
   - 86 x22 * x64 - 24 x22 * x65 + 6 x22 * x66 + 8 x22 * x67 - 88 x22 * x68
   + 58 x22 * x69 - 16 x23 * x24 - 44 x23 * x25 - 48 x23 * x26
   - 42 x23 * x27 + 92 x23 * x29 + 98 x23 * x30 - 76 x23 * x31
   + 92 x23 * x33 + 80 x23 * x34 + 92 x23 * x35 + 28 x23 * x36
   + 4 x23 * x37 - 60 x23 * x38 + 80 x23 * x39 + 72 x23 * x40
   + 74 x23 * x41 - 42 x23 * x43 + 40 x23 * x44 + 20 x23 * x45
   - 38 x23 * x48 + 66 x23 * x49 + 48 x23 * x50 + 76 x23 * x51
   + 40 x23 * x52 + 64 x23 * x53 + 64 x23 * x54 - 40 x23 * x57
   - 64 x23 * x58 + 82 x23 * x59 + 6 x23 * x61 + 52 x23 * x62 + 6 x23 * x64
   + 52 x23 * x65 + 16 x23 * x66 + 46 x23 * x68 + 76 x23 * x69
   + 30 x24 * x25 + 16 x24 * x26 - 66 x24 * x28 - 18 x24 * x29
   + 22 x24 * x30 - 90 x24 * x31 + 62 x24 * x32 - 92 x24 * x33
   + 16 x24 * x34 - 8 x24 * x36 + 22 x24 * x37 + 82 x24 * x38
   - 50 x24 * x39 + 72 x24 * x40 - 96 x24 * x41 + 90 x24 * x42
   - 58 x24 * x43 + 50 x24 * x44 + 70 x24 * x45 - 60 x24 * x46
   + 80 x24 * x47 - 26 x24 * x48 - 20 x24 * x49 - 14 x24 * x52
   - 18 x24 * x53 - 70 x24 * x54 + 82 x24 * x55 - 46 x24 * x56
   + 94 x24 * x57 - 48 x24 * x58 - 30 x24 * x59 + 98 x24 * x60
   - 12 x24 * x61 + 2 x24 * x62 + 94 x24 * x63 + 76 x24 * x64
   + 16 x24 * x65 - 6 x24 * x66 - 70 x24 * x67 - 96 x24 * x68
   - 12 x24 * x69 + 24 x25 ^2 - 6 x25 * x26 - 54 x25 * x28 - 52 x25 * x29
   + 28 x25 * x30 + 44 x25 * x31 - 54 x25 * x32 - 28 x25 * x33
   + 30 x25 * x34 - 42 x25 * x35 - 90 x25 * x36 - 2 x25 * x37
   + 40 x25 * x38 - 80 x25 * x39 - 76 x25 * x40 + 40 x25 * x42
   + 32 x25 * x46 + 62 x25 * x47 + 98 x25 * x49 - 80 x25 * x51
   + 50 x25 * x53 - 30 x25 * x54 - 36 x25 * x56 - 82 x25 * x57
   + 46 x25 * x59 + 40 x25 * x60 - 14 x25 * x62 - 80 x25 * x63
   + 60 x25 * x64 - 68 x25 * x65 - 40 x25 * x66 - 66 x25 * x67
   - 58 x25 * x68 + 40 x25 * x69 - 43 x26 ^2 + 88 x26 * x28 - 76 x26 * x30
   - 74 x26 * x31 - 82 x26 * x32 + 42 x26 * x33 + 34 x26 * x34
   - 38 x26 * x35 + 78 x26 * x36 + 42 x26 * x37 - 60 x26 * x38
   - 52 x26 * x39 - 60 x26 * x40 - 50 x26 * x41 + 6 x26 * x42
   - 30 x26 * x43 + 94 x26 * x44 - 28 x26 * x45 + 72 x26 * x47
   + 14 x26 * x48 + 22 x26 * x51 + 84 x26 * x52 + 30 x26 * x53
   + 60 x26 * x55 - 90 x26 * x56 - 84 x26 * x57 + 16 x26 * x58
   - 32 x26 * x59 - 84 x26 * x60 + 54 x26 * x61 + 84 x26 * x63
   + 82 x26 * x64 + 36 x26 * x65 - 90 x26 * x69 - 56 x27 * x28
   + 28 x27 * x30 - 10 x27 * x31 + 58 x27 * x32 - 22 x27 * x33
   - 38 x27 * x34 + 12 x27 * x35 - 34 x27 * x36 - 70 x27 * x37
   - 44 x27 * x38 + 36 x27 * x40 - 22 x27 * x41 - 80 x27 * x42
   + 86 x27 * x43 - 76 x27 * x44 - 48 x27 * x45 - 66 x27 * x46
   - 54 x27 * x48 + 2 x27 * x49 + 6 x27 * x50 + 44 x27 * x51 + 70 x27 * x52
   - 54 x27 * x53 - 40 x27 * x54 + 16 x27 * x55 + 70 x27 * x56
   + 58 x27 * x58 - 18 x27 * x59 + 38 x27 * x61 + 56 x27 * x63
   + 50 x27 * x65 - 6 x27 * x66 + 50 x27 * x67 - 68 x27 * x68 - 9 x28 ^2
   - 80 x28 * x29 - 14 x28 * x31 + 56 x28 * x32 + 20 x28 * x33
   + 8 x28 * x34 - 22 x28 * x35 + 38 x28 * x36 + 8 x28 * x38 - 70 x28 * x39
   + 80 x28 * x40 - 46 x28 * x42 + 64 x28 * x43 - 80 x28 * x44
   + 26 x28 * x47 + 54 x28 * x48 + 94 x28 * x50 + 8 x28 * x51
   - 78 x28 * x52 + 58 x28 * x55 - 58 x28 * x56 - 88 x28 * x57
   + 76 x28 * x58 - 6 x28 * x59 + 26 x28 * x60 + 50 x28 * x61
   + 28 x28 * x62 + 28 x28 * x63 - 96 x28 * x64 - 8 x28 * x65
   + 66 x28 * x66 - 90 x28 * x67 + 98 x28 * x68 + 28 x29 ^2 - 92 x29 * x31
   + 58 x29 * x33 - 58 x29 * x35 + 92 x29 * x39 + 66 x29 * x40
   - 54 x29 * x41 + 74 x29 * x42 + 54 x29 * x43 - 46 x29 * x44
   - 50 x29 * x45 + 86 x29 * x48 - 84 x29 * x49 - 90 x29 * x50
   - 62 x29 * x51 - 30 x29 * x52 + 98 x29 * x53 + 24 x29 * x54
   - 28 x29 * x55 + 84 x29 * x57 - 72 x29 * x58 - 58 x29 * x59
   - 42 x29 * x60 + 44 x29 * x62 + 98 x29 * x63 - 42 x29 * x64
   + 30 x29 * x65 - 10 x29 * x66 - 76 x29 * x67 - 4 x29 * x69 - 24 x30 ^2
   - 44 x30 * x33 - 86 x30 * x34 - 90 x30 * x35 + 28 x30 * x36
   + 68 x30 * x37 - 34 x30 * x38 + 34 x30 * x39 + 72 x30 * x40
   + 82 x30 * x41 + 42 x30 * x42 + 92 x30 * x43 - 10 x30 * x44
   - 66 x30 * x45 - 98 x30 * x46 + 10 x30 * x47 - 76 x30 * x49
   - 78 x30 * x52 + 74 x30 * x54 + 20 x30 * x55 + 40 x30 * x57
   - 62 x30 * x59 + 52 x30 * x60 + 16 x30 * x61 - 90 x30 * x62
   - 34 x30 * x64 + 18 x30 * x65 - 38 x30 * x66 + 46 x30 * x67
   + 12 x30 * x68 + 16 x30 * x69 - 41 x31 ^2 - 36 x31 * x32 + 56 x31 * x33
   - 46 x31 * x34 - 30 x31 * x35 - 6 x31 * x36 + 48 x31 * x37
   - 66 x31 * x38 - 92 x31 * x41 - 56 x31 * x42 + 72 x31 * x44
   - 16 x31 * x45 - 58 x31 * x47 + 74 x31 * x49 - 88 x31 * x50
   + 36 x31 * x51 - 36 x31 * x52 + 46 x31 * x53 - 2 x31 * x55
   + 18 x31 * x56 - 88 x31 * x57 + 22 x31 * x58 - 6 x31 * x59
   - 78 x31 * x63 - 14 x31 * x64 + 54 x31 * x65 + 6 x31 * x66
   - 84 x31 * x67 + 80 x31 * x68 + 30 x31 * x69 - 68 x32 * x33
   - 78 x32 * x34 + 68 x32 * x35 - 88 x32 * x39 + 64 x32 * x40
   - 62 x32 * x43 - 40 x32 * x45 + 90 x32 * x46 - 40 x32 * x47
   + 72 x32 * x48 + 98 x32 * x49 - 68 x32 * x50 - 82 x32 * x52
   + 62 x32 * x54 - 80 x32 * x55 - 82 x32 * x56 - 14 x32 * x57
   - 36 x32 * x58 - 22 x32 * x60 + 20 x32 * x61 - 88 x32 * x63
   - 66 x32 * x64 - 76 x32 * x67 + 56 x32 * x68 + 38 x32 * x69 - 28 x33 ^2
   + 94 x33 * x34 - 68 x33 * x35 - 20 x33 * x37 + 36 x33 * x38
   - 38 x33 * x39 + 92 x33 * x40 - 20 x33 * x41 - 12 x33 * x42
   + 20 x33 * x43 - 28 x33 * x44 - 84 x33 * x45 + 62 x33 * x46
   + 12 x33 * x51 - 54 x33 * x53 - 72 x33 * x54 + 54 x33 * x55
   + 74 x33 * x56 + 46 x33 * x58 + 26 x33 * x60 - 92 x33 * x61
   - 56 x33 * x62 + 10 x33 * x63 - 82 x33 * x65 - 32 x33 * x66
   + 8 x33 * x67 - 98 x33 * x68 - 10 x33 * x69 - 26 x34 ^2 - 78 x34 * x35
   + 74 x34 * x36 + 16 x34 * x38 - 44 x34 * x39 + 30 x34 * x40
   - 66 x34 * x41 - 76 x34 * x42 + 78 x34 * x43 + 88 x34 * x44
   - 42 x34 * x45 + 24 x34 * x46 + 2 x34 * x48 + 24 x34 * x49
   - 72 x34 * x50 - 6 x34 * x51 + 72 x34 * x52 - 52 x34 * x53
   + 30 x34 * x54 + 20 x34 * x55 - 62 x34 * x56 - 86 x34 * x57
   + 90 x34 * x58 - 36 x34 * x60 + 12 x34 * x61 - 30 x34 * x63
   + 66 x34 * x64 + 14 x34 * x66 - 14 x35 ^2 - 20 x35 * x37 + 98 x35 * x38
   + 68 x35 * x39 - 92 x35 * x40 - 10 x35 * x42 + 80 x35 * x43
   - 94 x35 * x46 - 18 x35 * x47 + 50 x35 * x48 + 90 x35 * x49
   + 38 x35 * x50 + 30 x35 * x51 + 32 x35 * x52 - 54 x35 * x53
   + 74 x35 * x54 + 30 x35 * x56 - 26 x35 * x57 + 44 x35 * x58
   + 98 x35 * x59 - 88 x35 * x60 - 30 x35 * x62 - 34 x35 * x64
   + 10 x35 * x65 - 94 x35 * x66 + 68 x35 * x68 - 90 x36 * x37
   - 88 x36 * x38 - 54 x36 * x39 - 4 x36 * x40 - 18 x36 * x42
   - 60 x36 * x45 + 72 x36 * x46 + 54 x36 * x47 + 70 x36 * x48
   + 18 x36 * x49 - 8 x36 * x50 + 2 x36 * x51 + 82 x36 * x52 + 40 x36 * x54
   - 14 x36 * x56 - 58 x36 * x60 + 92 x36 * x61 + 54 x36 * x64
   - 62 x36 * x65 - 70 x36 * x66 - 56 x36 * x67 - 52 x36 * x68
   - 24 x36 * x69 + 35 x37 ^2 - 50 x37 * x38 + 84 x37 * x39 + 6 x37 * x43
   + 32 x37 * x44 - 72 x37 * x45 - 58 x37 * x46 + 80 x37 * x47
   + 60 x37 * x48 - 56 x37 * x49 + 38 x37 * x50 + 84 x37 * x51
   + 18 x37 * x52 - 14 x37 * x53 + 18 x37 * x54 - 76 x37 * x55
   - 76 x37 * x57 + 62 x37 * x58 + 26 x37 * x59 + 82 x37 * x60
   + 26 x37 * x61 + 10 x37 * x62 + 68 x37 * x64 - 72 x37 * x65
   + 18 x37 * x66 - 36 x37 * x67 + 14 x37 * x68 + 76 x37 * x69
   - 86 x38 * x39 + 48 x38 * x40 + 86 x38 * x42 - 64 x38 * x44
   - 82 x38 * x46 + 12 x38 * x48 - 74 x38 * x50 + 92 x38 * x51
   - 42 x38 * x53 - 40 x38 * x55 + 72 x38 * x57 + 90 x38 * x58
   - 44 x38 * x61 - 48 x38 * x62 + 94 x38 * x63 - 60 x38 * x66
   - 30 x38 * x67 - 10 x38 * x68 + 17 x39 ^2 - 62 x39 * x42 + 80 x39 * x43
   + 34 x39 * x44 - 10 x39 * x45 + 96 x39 * x49 + 62 x39 * x51
   - 76 x39 * x52 + 76 x39 * x53 - 48 x39 * x54 + 14 x39 * x55
   - 94 x39 * x56 - 22 x39 * x58 - 18 x39 * x60 - 14 x39 * x61
   - 8 x39 * x62 + 40 x39 * x63 + 56 x39 * x64 - 84 x39 * x66
   - 76 x39 * x67 - 18 x39 * x68 - 20 x40 ^2 - 86 x40 * x41 + 56 x40 * x42
   - 20 x40 * x43 + 68 x40 * x44 - 92 x40 * x46 + 36 x40 * x47
   + 30 x40 * x48 - 42 x40 * x49 + 48 x40 * x50 - 90 x40 * x51
   - 80 x40 * x52 - 36 x40 * x53 - 62 x40 * x54 - 34 x40 * x55
   - 6 x40 * x56 + 54 x40 * x57 - 92 x40 * x58 + 6 x40 * x59 - 46 x40 * x60
   + 42 x40 * x61 + 72 x40 * x62 + 56 x40 * x65 - 52 x40 * x66
   - 72 x40 * x67 + 88 x40 * x68 - 38 x40 * x69 - 12 x41 ^2 + 12 x41 * x44
   + 54 x41 * x45 - 30 x41 * x46 - 92 x41 * x47 - 22 x41 * x48
   + 58 x41 * x52 + 8 x41 * x55 + 36 x41 * x56 + 94 x41 * x57
   - 86 x41 * x60 + 20 x41 * x61 - 68 x41 * x63 + 92 x41 * x64
   + 10 x41 * x65 + 36 x41 * x66 - 24 x41 * x67 + 72 x41 * x68
   - 90 x41 * x69 - 11 x42 ^2 - 26 x42 * x44 - 34 x42 * x45 - 46 x42 * x47
   - 4 x42 * x48 + 46 x42 * x49 + 56 x42 * x50 + 40 x42 * x52
   + 86 x42 * x56 + 50 x42 * x57 + 20 x42 * x59 + 46 x42 * x61
   - 40 x42 * x62 + 48 x42 * x63 - 92 x42 * x64 - 98 x42 * x67
   + 46 x42 * x68 + 15 x43 ^2 - 36 x43 * x47 - 16 x43 * x48 + 98 x43 * x49
   - 70 x43 * x51 + 66 x43 * x52 + 74 x43 * x54 + 76 x43 * x55
   + 72 x43 * x57 - 62 x43 * x58 - 86 x43 * x59 + 34 x43 * x62
   + 56 x43 * x63 - 80 x43 * x65 + 94 x43 * x66 + 48 x43 * x68 + 8 x44 ^2
   + 68 x44 * x45 + 36 x44 * x46 + 60 x44 * x48 + 4 x44 * x50
   + 62 x44 * x51 - 46 x44 * x52 - 44 x44 * x53 + 84 x44 * x60
   + 26 x44 * x62 - 40 x44 * x63 + 90 x44 * x64 + 54 x44 * x66
   - 74 x44 * x68 + 27 x45 ^2 - 72 x45 * x46 - 38 x45 * x47 - 28 x45 * x48
   - 84 x45 * x49 - 40 x45 * x50 - 60 x45 * x51 - 84 x45 * x52
   + 68 x45 * x53 + 44 x45 * x56 - 82 x45 * x57 - 70 x45 * x58
   + 44 x45 * x60 + 90 x45 * x61 - 92 x45 * x64 - 14 x45 * x66
   - 10 x45 * x67 - 68 x45 * x69 - 37 x46 ^2 + 72 x46 * x47 + 74 x46 * x48
   + 20 x46 * x49 - 58 x46 * x51 + 68 x46 * x52 - 38 x46 * x53
   + 96 x46 * x54 + 22 x46 * x55 - 90 x46 * x57 + 50 x46 * x58
   + 16 x46 * x59 + 82 x46 * x61 + 36 x46 * x62 - 82 x46 * x63
   - 24 x46 * x64 + 52 x46 * x65 - 30 x46 * x67 + 52 x46 * x68 - 40 x47 ^2
   + 22 x47 * x48 - 38 x47 * x49 + 78 x47 * x50 - 36 x47 * x51
   + 34 x47 * x55 + 26 x47 * x57 + 44 x47 * x58 + 78 x47 * x60
   - 64 x47 * x61 - 28 x47 * x63 - 84 x47 * x65 + 24 x47 * x66
   + 24 x47 * x67 - 20 x47 * x69 - 26 x48 * x49 + 70 x48 * x50
   + 52 x48 * x51 + 46 x48 * x53 - 80 x48 * x54 + 46 x48 * x55
   - 82 x48 * x56 + 82 x48 * x57 + 62 x48 * x58 + 82 x48 * x59
   + 8 x48 * x60 - 86 x48 * x62 - 50 x48 * x63 - 2 x48 * x64 + 70 x48 * x67
   + 80 x48 * x68 - 52 x49 * x51 - 46 x49 * x53 + 86 x49 * x54
   - 88 x49 * x55 - 12 x49 * x58 + 98 x49 * x59 - 30 x49 * x60
   + 48 x49 * x61 + 48 x49 * x62 - 18 x49 * x63 - 70 x49 * x64
   + 34 x49 * x65 + 86 x49 * x66 + 74 x49 * x67 + 28 x49 * x68 + 35 x50 ^2
   - 4 x50 * x51 - 52 x50 * x52 + 4 x50 * x53 - 22 x50 * x54 - 86 x50 * x57
   + 78 x50 * x58 - 58 x50 * x59 - 30 x50 * x60 - 48 x50 * x61
   + 54 x50 * x62 - 52 x50 * x65 - 60 x50 * x66 - 26 x50 * x68
   - 80 x50 * x69 - 15 x51 ^2 + 20 x51 * x53 + 50 x51 * x54 - 24 x51 * x56
   - 96 x51 * x58 + 54 x51 * x59 - 14 x51 * x60 + 2 x51 * x61
   - 88 x51 * x62 - 72 x51 * x65 + 96 x51 * x66 + 50 x51 * x67
   - 56 x51 * x68 - 18 x51 * x69 + 7 x52 ^2 - 80 x52 * x55 - 86 x52 * x56
   + 72 x52 * x58 - 72 x52 * x59 + 4 x52 * x62 - 60 x52 * x63
   - 80 x52 * x64 - 98 x52 * x65 + 64 x52 * x66 + 84 x52 * x67
   + 92 x52 * x68 + 70 x52 * x69 - 23 x53 ^2 + 46 x53 * x54 - 54 x53 * x55
   - 76 x53 * x56 + 6 x53 * x57 - 52 x53 * x58 - 60 x53 * x59
   + 50 x53 * x60 + 34 x53 * x61 + 94 x53 * x62 - 44 x53 * x63
   - 34 x53 * x64 + 44 x53 * x65 - 26 x53 * x66 + 50 x53 * x67
   + 4 x53 * x68 + 46 x53 * x69 - 37 x54 ^2 - 22 x54 * x55 - 92 x54 * x57
   + 40 x54 * x58 - 78 x54 * x59 - 26 x54 * x60 + 52 x54 * x61
   + 58 x54 * x63 + 4 x54 * x64 + 14 x54 * x65 - 78 x54 * x66
   - 72 x54 * x67 + 68 x54 * x68 - 8 x54 * x69 + 44 x55 ^2 + 14 x55 * x56
   + 72 x55 * x57 - 80 x55 * x58 + 92 x55 * x59 + 56 x55 * x60
   + 76 x55 * x62 + 88 x55 * x64 + 42 x55 * x65 + 28 x55 * x66
   + 96 x55 * x67 + 42 x55 * x68 + 58 x55 * x69 + 15 x56 ^2 - 58 x56 * x58
   + 92 x56 * x59 + 62 x56 * x60 + 50 x56 * x61 + 96 x56 * x62
   + 78 x56 * x64 - 78 x56 * x67 - 64 x56 * x69 + 42 x57 ^2 - 96 x57 * x58
   - 82 x57 * x60 - 34 x57 * x61 + 34 x57 * x62 - 68 x57 * x63
   + 92 x57 * x64 + 68 x57 * x65 - 2 x57 * x66 - 70 x57 * x67
   - 54 x57 * x68 + 46 x58 ^2 - 78 x58 * x59 + 16 x58 * x60 + 54 x58 * x62
   + 34 x58 * x63 + 24 x58 * x64 + 16 x58 * x65 - 4 x58 * x66 - 6 x58 * x68
   - 54 x58 * x69 - 45 x59 ^2 - 92 x59 * x61 - 64 x59 * x62 + 36 x59 * x63
   - 24 x59 * x64 - 38 x59 * x66 + 28 x59 * x67 - 10 x60 ^2 - 50 x60 * x61
   - 58 x60 * x62 - 84 x60 * x63 - 34 x60 * x65 + 8 x60 * x66 + 8 x60 * x67
   + 26 x60 * x68 - 50 x60 * x69 + 18 x61 ^2 - 56 x61 * x62 - 4 x61 * x64
   - 24 x61 * x65 - 60 x61 * x69 - 90 x62 * x64 - 12 x62 * x66
   - 66 x62 * x67 - 4 x62 * x68 + 16 x63 ^2 + 36 x63 * x64 + 64 x63 * x66
   - 64 x63 * x67 - 36 x63 * x68 + 14 x63 * x69 + 49 x64 ^2 - 10 x64 * x66
   - 76 x64 * x67 + 92 x64 * x68 - 20 x64 * x69 - 16 x65 ^2 + 2 x65 * x66
   - 66 x65 * x67 - 56 x65 * x69 + 39 x66 ^2 + 94 x66 * x67 - 4 x66 * x68
   + 68 x67 * x68 + 10 x67 * x69 + 29 x69 ^2 ] / 2 
Subject To
Bounds
 x0 <= 1
 x1 <= 1
 x2 <= 1
 x3 <= 1
 x4 <= 1
 x5 <= 1
 x6 <= 1
 x7 <= 1
 x8 <= 1
 x9 <= 1
 x10 <= 1
 x11 <= 1
 x12 <= 1
 x13 <= 1
 x14 <= 1
 x15 <= 1
 x16 <= 1
 x17 <= 1
 x18 <= 1
 x19 <= 1
 x20 <= 1
 x21 <= 1
 x22 <= 1
 x23 <= 1
 x24 <= 1
 x25 <= 1
 x26 <= 1
 x27 <= 1
 x28 <= 1
 x29 <= 1
 x30 <= 1
 x31 <= 1
 x32 <= 1
 x33 <= 1
 x34 <= 1
 x35 <= 1
 x36 <= 1
 x37 <= 1
 x38 <= 1
 x39 <= 1
 x40 <= 1
 x41 <= 1
 x42 <= 1
 x43 <= 1
 x44 <= 1
 x45 <= 1
 x46 <= 1
 x47 <= 1
 x48 <= 1
 x49 <= 1
 x50 <= 1
 x51 <= 1
 x52 <= 1
 x53 <= 1
 x54 <= 1
 x55 <= 1
 x56 <= 1
 x57 <= 1
 x58 <= 1
 x59 <= 1
 x60 <= 1
 x61 <= 1
 x62 <= 1
 x63 <= 1
 x64 <= 1
 x65 <= 1
 x66 <= 1
 x67 <= 1
 x68 <= 1
 x69 <= 1
End
